
;this file is automatically generated: Fri Jan 03 16:26:56 GMT 2020

;declarations generated

(declare-fun oclExcludes ( Int Int) Bool)
(declare-fun class8_Class8IntAttr2 ( Int) Int)
(declare-fun class8_Class8IntAttr3 ( Int) Int)
(declare-fun Cardinality ( Int) Int)
(declare-fun oclSelect ( Int Bool) Int)
(declare-fun obj_78cc17a0_9923_4fe4_b653_9239e0182dd7 ( Int) Int)
(declare-fun Enum0 ( Int) Int)
(declare-fun Enum1 ( Int) Int)
(declare-fun Enum2 ( Int) Int)
(declare-fun type_daadee25_d9b2_4398_8db1_9a4bea098422_Class8 ( Int) Bool)
(declare-fun container_ ( Int) Int)
(declare-fun oclIncludes ( Int Int) Bool)
(declare-fun ObjAt ( Int Int) Int)

;formula(s) generated
(assert (forall ((p Int)) (=> ( type_daadee25_d9b2_4398_8db1_9a4bea098422_Class8 p )  (and (>= ( Enum2 ( obj_78cc17a0_9923_4fe4_b653_9239e0182dd7 p )  )  0) (<= ( Enum2 ( obj_78cc17a0_9923_4fe4_b653_9239e0182dd7 p )  )  6)))))
(assert (! (forall ((v Int)) (=> ( type_daadee25_d9b2_4398_8db1_9a4bea098422_Class8 v )  (or (not (= ( Enum2 ( obj_78cc17a0_9923_4fe4_b653_9239e0182dd7 v )  )  4) ) (and (forall ((v Int)) (=> ( type_daadee25_d9b2_4398_8db1_9a4bea098422_Class8 v )  (> ( class8_Class8IntAttr2 ( obj_78cc17a0_9923_4fe4_b653_9239e0182dd7 v )  )  16))) (forall ((v Int)) (=> ( type_daadee25_d9b2_4398_8db1_9a4bea098422_Class8 v )  (> ( class8_Class8IntAttr3 ( obj_78cc17a0_9923_4fe4_b653_9239e0182dd7 v )  )  4))))))):named l0))
(assert (exists ((o Int)) ( type_daadee25_d9b2_4398_8db1_9a4bea098422_Class8 ( obj_78cc17a0_9923_4fe4_b653_9239e0182dd7 o )  ) ))

 ;end of formula 